************************************************************************
file with basedata            : md344_.bas
initial value random generator: 316504359
************************************************************************
projects                      :  1
jobs (incl. supersource/sink ):  22
horizon                       :  162
RESOURCES
  - renewable                 :  2   R
  - nonrenewable              :  2   N
  - doubly constrained        :  0   D
************************************************************************
PROJECT INFORMATION:
pronr.  #jobs rel.date duedate tardcost  MPM-Time
    1     20      0       31        3       31
************************************************************************
PRECEDENCE RELATIONS:
jobnr.    #modes  #successors   successors
   1        1          3           2   3   4
   2        3          2           9  10
   3        3          2           5  13
   4        3          1           7
   5        3          3           6  10  16
   6        3          3           8  11  12
   7        3          3          10  14  17
   8        3          3          14  15  17
   9        3          2          16  17
  10        3          1          15
  11        3          2          15  19
  12        3          2          20  21
  13        3          2          14  16
  14        3          1          18
  15        3          2          20  21
  16        3          1          18
  17        3          1          19
  18        3          3          19  20  21
  19        3          1          22
  20        3          1          22
  21        3          1          22
  22        1          0        
************************************************************************
REQUESTS/DURATIONS:
jobnr. mode duration  R 1  R 2  N 1  N 2
------------------------------------------------------------------------
  1      1     0       0    0    0    0
  2      1     1       9    5    9    0
         2     6       8    5    8    0
         3     9       7    5    7    0
  3      1     3       6    3    0    4
         2     7       6    2    0    3
         3     9       5    2    0    3
  4      1     2       6    7    6    0
         2     5       4    7    4    0
         3     7       2    6    0    5
  5      1     2       8    9    0    8
         2     6       7    5    7    0
         3     8       7    4    2    0
  6      1     3      10    7    0    9
         2     4       6    5    0    9
         3    10       4    3    2    0
  7      1     1       9    8    7    0
         2     7       8    7    7    0
         3     8       6    4    4    0
  8      1     5       3    7    0    8
         2     6       3    6    0    7
         3    10       3    3    3    0
  9      1     4       2    3    6    0
         2     5       2    3    0    9
         3    10       2    3    0    7
 10      1     2       8    9    5    0
         2     6       6    8    4    0
         3     8       4    7    3    0
 11      1     7       8    6    7    0
         2     8       5    6    0    5
         3     9       4    6    0    5
 12      1     3       4    9    8    0
         2     3       5   10    0    5
         3     7       3    8    0    4
 13      1     1       4    1    0    5
         2     3       3    1    0    4
         3     8       2    1    0    4
 14      1     5       7    3    6    0
         2     6       5    2    0    7
         3     8       3    2    6    0
 15      1     2       7    7    6    0
         2     5       5    6    0    5
         3     7       2    2    5    0
 16      1     1       5    7    0    4
         2     3       5    7    7    0
         3     6       3    4    0    4
 17      1     5       4    3    0    5
         2     8       3    3    0    2
         3     8       1    3    8    0
 18      1     4       7    6    0    6
         2     6       7    4    0    3
         3     8       7    2    0    1
 19      1     2       5    7    5    0
         2     2       6    3   10    0
         3     2       5    5   10    0
 20      1     4       7    8    0    7
         2     9       6    8    0    5
         3    10       6    8    4    0
 21      1     9       9    3    0    5
         2     9       6    4    0    6
         3    10       3    2    7    0
 22      1     0       0    0    0    0
************************************************************************
RESOURCEAVAILABILITIES:
  R 1  R 2  N 1  N 2
   23   23   86   76
************************************************************************
MAXIMAL LAGS:
from  to  type  delay
    1   12   ES      0
    1    2   ES      0
    2   12   ES      0
    1    3   ES      0
    3   12   ES      0
    1    4   ES      0
    4   12   ES      0
    1    5   ES      0
    5   12   ES      0
    1    6   ES      0
    6   12   ES      0
    1    7   ES      0
    7   12   ES      0
    1    8   ES      0
    8   12   ES      0
    1    9   ES      0
    9   12   ES      0
    1   10   ES      0
   10   12   ES      0
    1   11   ES      0
   11   12   ES      0
    1   12   ES      0
    2    9   SS     -3
    2    9   SE     -4
    2    9   ES    -10
    2    9   EE      2
    2   10   SS      9
    2   10   SE    -10
    2   10   ES      9
    2   10   EE     -2
    3    5   SS      4
    3    5   SE     -9
    3    5   ES    -12
    3    5   EE     -8
    3   13   SS     12
    3   13   SE     -9
    3   13   ES     -5
    3   13   EE    -10
    4    7   SS     -7
    4    7   SE     -1
    4    7   ES    -10
    4    7   EE     -8
    5    6   SS      6
    5    6   SE     -5
    5    6   ES     12
    5    6   EE    -10
    5   10   SS    -10
    5   10   SE    -12
    5   10   ES     11
    5   10   EE    -12
    5   16   SS     11
    5   16   SE     -2
    5   16   ES      7
    5   16   EE    -10
    6    8   SS     -8
    6    8   SE      6
    6    8   ES      8
    6    8   EE      2
    6   11   SS      8
    6   11   SE     -2
    6   11   ES      9
    6   11   EE     -9
    7   10   SS      7
    7   10   SE     -9
    7   10   ES    -11
    7   10   EE     10
    7   14   SS     -8
    7   14   SE     -6
    7   14   ES     11
    7   14   EE    -10
    7   17   SS     -7
    7   17   SE    -10
    7   17   ES     10
    7   17   EE    -10
    8   14   SS    -12
    8   14   SE      1
    8   14   ES      9
    8   14   EE     -5
    8   15   SS     -6
    8   15   SE    -11
    8   15   ES     10
    8   15   EE    -10
    8   17   SS      0
    8   17   SE     -2
    8   17   ES      8
    8   17   EE      4
    9   16   SS     -6
    9   16   SE      3
    9   16   ES     -6
    9   16   EE     10
    9   17   SS      3
    9   17   SE      7
    9   17   ES     10
    9   17   EE     -7
   10   15   SS      3
   10   15   SE     -3
   10   15   ES     11
   10   15   EE      9
   11   15   SS      6
   11   15   SE    -11
   11   15   ES      2
   11   15   EE     -7
   11   19   SS      4
   11   19   SE    -12
   11   19   ES    -10
   11   19   EE     -7
   12   20   SS     -6
   12   20   SE     -4
   12   20   ES     -8
   12   20   EE      5
   12   21   SS      6
   12   21   SE     -6
   12   21   ES     10
   12   21   EE     -9
   13   14   SS     10
   13   14   SE     12
   13   14   ES    -10
   13   14   EE     -6
   13   16   SS     -7
   13   16   SE     -2
   13   16   ES     12
   13   16   EE     -5
   14   18   SS     -7
   14   18   SE      0
   14   18   ES      8
   14   18   EE      6
   15   20   SS     -3
   15   20   SE      7
   15   20   ES      1
   15   20   EE      4
   15   21   SS      8
   15   21   SE     -3
   15   21   ES     -6
   15   21   EE      1
   16   18   SS     -4
   16   18   SE     -1
   16   18   ES     11
   16   18   EE     -5
   17   19   SS      4
   17   19   SE    -12
   17   19   ES      8
   17   19   EE      9
   18   19   SS     -4
   18   19   SE     -3
   18   19   ES     12
   18   19   EE     -7
   18   20   SS    -10
   18   20   SE    -11
   18   20   ES    -10
   18   20   EE      3
   18   21   SS     -1
   18   21   SE     11
   18   21   ES    -11
   18   21   EE      7
   19   22   SS     12
   19   22   SE      1
   19   22   ES    -10
   19   22   EE      9
   20   22   SS     12
   20   22   SE     10
   20   22   ES      2
   20   22   EE    -12
   21   22   SS     11
   21   22   SE      9
   21   22   ES    -10
   21   22   EE     -2
************************************************************************
